p cnf 7230 17
-6133 -6134 0
-5887 -6015 -6131 0
-5881 -6009 -6129 0
-3456 -5937 6127 0
5887 -6132 0
5881 -6130 0
3456 -6128 0
6131 6132 0
6129 6130 0
-6127 6128 0
6015 -6132 0
6009 -6130 0
5937 -6128 0
-5889 -6017 6134 0
6125 6126 0
6017 -6134 0
5889 -6134 0
